Instance: E076-14s.dat
Class:  1
75 --- number of customers (no depot)
14 --- number of vehicles
75 --- number of items
Capacity - height - width of vehicles
   100     40     20
Node - x - y - demand  Readytime Duetime
  0.00   40.00  40.00   0.00 0       1138.00
  1.00   22.00  22.00  18.00 784.00  817.00
  2.00   36.00  26.00  26.00 967.00  1003.00
  3.00   21.00  45.00  11.00 764.00  794.00
  4.00   45.00  35.00  30.00 217.00  256.00
  5.00   55.00  20.00  21.00 826.00  859.00
  6.00   33.00  34.00  19.00 889.00  926.00
  7.00   50.00  50.00  15.00 759.00  803.00
  8.00   55.00  45.00  16.00 879.00  918.00
  9.00   26.00  59.00  29.00 548.00  586.00
 10.00   40.00  66.00  26.00 835.00  879.00
 11.00   55.00  65.00  37.00 461.00  498.00
 12.00   35.00  51.00  16.00 938.00  978.00
 13.00   62.00  35.00  12.00 547.00  589.00
 14.00   62.00  57.00  31.00 650.00  682.00
 15.00   62.00  24.00   8.00   1.00   57.00
 16.00   21.00  36.00  19.00 284.00  314.00
 17.00   33.00  44.00  20.00 451.00  494.00
 18.00    9.00  56.00  13.00 344.00  379.00
 19.00   62.00  48.00  15.00 185.00  225.00
 20.00   66.00  14.00  22.00 947.00  992.00
 21.00   44.00  13.00  28.00 1010.00  1052.00
 22.00   26.00  13.00  12.00 917.00  951.00
 23.00   11.00  28.00   6.00  69.00  114.00
 24.00    7.00  43.00  27.00 250.00  290.00
 25.00   17.00  64.00  14.00 942.00  981.00
 26.00   41.00  46.00  18.00 262.00  292.00
 27.00   55.00  34.00  17.00 644.00  683.00
 28.00   35.00  16.00  29.00 205.00  249.00
 29.00   52.00  26.00  13.00 670.00  706.00
 30.00   43.00  26.00  22.00 599.00  633.00
 31.00   31.00  76.00  25.00  43.00   76.00
 32.00   22.00  53.00  28.00 290.00  322.00
 33.00   26.00  29.00  27.00 818.00  850.00
 34.00   50.00  40.00  19.00  41.00   83.00
 35.00   55.00  50.00  10.00 824.00  869.00
 36.00   54.00  10.00  12.00 421.00  460.00
 37.00   60.00  15.00  14.00 491.00  524.00
 38.00   47.00  66.00  24.00 646.00  690.00
 39.00   30.00  60.00  16.00 886.00  928.00
 40.00   30.00  50.00  33.00 447.00  477.00
 41.00   12.00  17.00  15.00 460.00  503.00
 42.00   15.00  14.00  11.00 580.00  614.00
 43.00   16.00  19.00  18.00 239.00  282.00
 44.00   21.00  48.00  17.00 696.00  730.00
 45.00   50.00  30.00  21.00  95.00  128.00
 46.00   51.00  42.00  27.00 758.00  794.00
 47.00   50.00  15.00  19.00 690.00  720.00
 48.00   48.00  21.00  20.00  55.00   86.00
 49.00   12.00  38.00   5.00  57.00   99.00
 50.00   15.00  56.00  22.00 754.00  791.00
 51.00   29.00  39.00  12.00  88.00  128.00
 52.00   54.00  38.00  19.00 238.00  280.00
 53.00   55.00  57.00  22.00 985.00  1023.00
 54.00   67.00  41.00  16.00 997.00  1029.00
 55.00   10.00  70.00   7.00 781.00  823.00
 56.00    6.00  25.00  26.00 431.00  461.00
 57.00   65.00  27.00  14.00 720.00  761.00
 58.00   40.00  60.00  21.00 249.00  282.00
 59.00   70.00  64.00  24.00 436.00  471.00
 60.00   64.00   4.00  13.00 111.00  155.00
 61.00   36.00   6.00  15.00 663.00  704.00
 62.00   30.00  20.00  18.00 525.00  570.00
 63.00   20.00  30.00  11.00 1020.00  1053.00
 64.00   15.00   5.00  28.00 487.00  528.00
 65.00   50.00  70.00   9.00 679.00  712.00
 66.00   57.00  72.00  37.00 181.00  219.00
 67.00   45.00  42.00  30.00 375.00  420.00
 68.00   38.00  33.00  10.00 855.00  885.00
 69.00   50.00   4.00   8.00 922.00  956.00
 70.00   66.00   8.00  11.00 361.00  400.00
 71.00   59.00   5.00   3.00 835.00  876.00
 72.00   35.00  60.00   1.00 524.00  565.00
 73.00   27.00  24.00   6.00 495.00  531.00
 74.00   40.00  20.00  10.00 820.00  850.00
 75.00   40.00  37.00  20.00 321.00  351.00
Node - number of items - h - w for each item
    0   0
    1   1    1    1
    2   1    1    1
    3   1    1    1
    4   1    1    1
    5   1    1    1
    6   1    1    1
    7   1    1    1
    8   1    1    1
    9   1    1    1
   10   1    1    1
   11   1    1    1
   12   1    1    1
   13   1    1    1
   14   1    1    1
   15   1    1    1
   16   1    1    1
   17   1    1    1
   18   1    1    1
   19   1    1    1
   20   1    1    1
   21   1    1    1
   22   1    1    1
   23   1    1    1
   24   1    1    1
   25   1    1    1
   26   1    1    1
   27   1    1    1
   28   1    1    1
   29   1    1    1
   30   1    1    1
   31   1    1    1
   32   1    1    1
   33   1    1    1
   34   1    1    1
   35   1    1    1
   36   1    1    1
   37   1    1    1
   38   1    1    1
   39   1    1    1
   40   1    1    1
   41   1    1    1
   42   1    1    1
   43   1    1    1
   44   1    1    1
   45   1    1    1
   46   1    1    1
   47   1    1    1
   48   1    1    1
   49   1    1    1
   50   1    1    1
   51   1    1    1
   52   1    1    1
   53   1    1    1
   54   1    1    1
   55   1    1    1
   56   1    1    1
   57   1    1    1
   58   1    1    1
   59   1    1    1
   60   1    1    1
   61   1    1    1
   62   1    1    1
   63   1    1    1
   64   1    1    1
   65   1    1    1
   66   1    1    1
   67   1    1    1
   68   1    1    1
   69   1    1    1
   70   1    1    1
   71   1    1    1
   72   1    1    1
   73   1    1    1
   74   1    1    1
   75   1    1    1













